(set-logic QF_FF)
(define-sort FF0 () (_ FiniteField 18446744069414584321))
(declare-fun s_11 () FF0)
(declare-fun s_12 () FF0)
(declare-fun s_13 () FF0)
(declare-fun v_0 () FF0)
(declare-fun v_102 () FF0)
(declare-fun v_103 () FF0)
(declare-fun v_8 () FF0)
(declare-fun v_9 () FF0)
(declare-fun v_10 () FF0)
(declare-fun v_11 () FF0)
(declare-fun v_12 () FF0)
(declare-fun v_13 () FF0)
(declare-fun v_14 () FF0)
(declare-fun v_15 () FF0)
(declare-fun v_16 () FF0)
(declare-fun v_17 () FF0)
(declare-fun v_18 () FF0)
(declare-fun v_19 () FF0)
(declare-fun v_20 () FF0)
(declare-fun v_21 () FF0)
(declare-fun v_22 () FF0)
(declare-fun v_23 () FF0)
(declare-fun v_24 () FF0)
(declare-fun v_25 () FF0)
(declare-fun v_26 () FF0)
(declare-fun v_27 () FF0)
(declare-fun v_28 () FF0)
(declare-fun v_29 () FF0)
(declare-fun v_30 () FF0)
(declare-fun v_31 () FF0)
(declare-fun v_32 () FF0)
(declare-fun v_33 () FF0)
(declare-fun v_34 () FF0)
(declare-fun v_35 () FF0)
(declare-fun v_36 () FF0)
(declare-fun v_37 () FF0)
(declare-fun v_38 () FF0)
(declare-fun v_39 () FF0)
(declare-fun v_40 () FF0)
(declare-fun v_41 () FF0)
(declare-fun v_42 () FF0)
(declare-fun v_43 () FF0)
(declare-fun v_44 () FF0)
(declare-fun v_45 () FF0)
(declare-fun v_46 () FF0)
(declare-fun v_47 () FF0)
(declare-fun v_48 () FF0)
(declare-fun v_49 () FF0)
(declare-fun v_50 () FF0)
(declare-fun v_51 () FF0)
(declare-fun v_52 () FF0)
(declare-fun v_53 () FF0)
(declare-fun v_54 () FF0)
(declare-fun v_55 () FF0)
(declare-fun v_56 () FF0)
(declare-fun v_57 () FF0)
(declare-fun v_58 () FF0)
(declare-fun v_59 () FF0)
(declare-fun v_60 () FF0)
(declare-fun v_61 () FF0)
(declare-fun v_62 () FF0)
(declare-fun v_63 () FF0)
(declare-fun v_64 () FF0)
(declare-fun v_65 () FF0)
(declare-fun v_66 () FF0)
(declare-fun v_67 () FF0)
(declare-fun v_68 () FF0)
(declare-fun v_69 () FF0)
(declare-fun v_70 () FF0)
(declare-fun v_71 () FF0)
(declare-fun v_72 () FF0)
(declare-fun v_74 () FF0)
(declare-fun v_77 () FF0)
(declare-fun v_78 () FF0)
(declare-fun v_87 () FF0)
(declare-fun v_89 () FF0)
(declare-fun v_92 () FF0)
(declare-fun v_93 () FF0)
(assert (= (as ff0 FF0) (ff.mul (ff.add s_11 (as ff18446744069414584320 FF0) ) s_11 )))
(assert (= (as ff0 FF0) (ff.mul (ff.add (as ff18446744069414584320 FF0) s_12 ) s_12 )))
(assert (= (ff.add (ff.mul s_11 (as ff18446744069414584320 FF0)) s_13 (ff.mul s_12 (as ff18446744069414584319 FF0)) ) (as ff0 FF0)))
(define-fun @Num2Bits_0 ((macro_v_0 FF0) (macro_v_102 FF0) (macro_v_103 FF0) (macro_v_8 FF0) (macro_v_9 FF0) (macro_v_10 FF0) (macro_v_11 FF0) (macro_v_12 FF0) (macro_v_13 FF0) (macro_v_14 FF0) (macro_v_15 FF0) (macro_v_16 FF0) (macro_v_17 FF0) (macro_v_18 FF0) (macro_v_19 FF0) (macro_v_20 FF0) (macro_v_21 FF0) (macro_v_22 FF0) (macro_v_23 FF0) (macro_v_24 FF0) (macro_v_25 FF0) (macro_v_26 FF0) (macro_v_27 FF0) (macro_v_28 FF0) (macro_v_29 FF0) (macro_v_30 FF0) (macro_v_31 FF0) (macro_v_32 FF0) (macro_v_33 FF0) (macro_v_34 FF0) (macro_v_35 FF0) (macro_v_36 FF0) (macro_v_37 FF0) (macro_v_38 FF0) (macro_v_39 FF0) (macro_v_40 FF0) (macro_v_41 FF0) (macro_v_42 FF0) (macro_v_43 FF0) (macro_v_44 FF0) (macro_v_45 FF0) (macro_v_46 FF0) (macro_v_47 FF0) (macro_v_48 FF0) (macro_v_49 FF0) (macro_v_50 FF0) (macro_v_51 FF0) (macro_v_52 FF0) (macro_v_53 FF0) (macro_v_54 FF0) (macro_v_55 FF0) (macro_v_56 FF0) (macro_v_57 FF0) (macro_v_58 FF0) (macro_v_59 FF0) (macro_v_60 FF0) (macro_v_61 FF0) (macro_v_62 FF0) (macro_v_63 FF0) (macro_v_64 FF0) (macro_v_65 FF0) (macro_v_66 FF0) (macro_v_67 FF0) (macro_v_68 FF0) (macro_v_69 FF0) (macro_v_70 FF0) (macro_v_71 FF0) (macro_v_72 FF0) (macro_v_74 FF0) (macro_v_77 FF0) (macro_v_78 FF0) (macro_v_87 FF0) (macro_v_89 FF0) (macro_v_92 FF0) (macro_v_93 FF0) ) Bool
 (and  (and  (and  (! true :meta-data "array.new 2 %nondet") (and  (! true :meta-data "%felt_const_2 := 2") (and  (! true :meta-data "%felt_const_0 := 0") (and  (! true :meta-data "%felt_const_1 := 1") (and  (! true :meta-data "%felt_const_0_0 := 0") (and  (! true :meta-data "%arg1 := %felt_const_0_0") (and  (! true :meta-data "%arg2 := %felt_const_0") (and  (! true :meta-data "%arg3 := %felt_const_1") (and  (! (and  (and  (! (and  (and  (and  (and  (and  (and  (and  (and  (and  (and  (and  (and  (and  (and  (and  (and  (and  (and  (and  (and  (and  (and  (and  (and  (and  (and  (and  (and  (and  (and  (and  (and  (and  (and  (and  (and  (and  (and  (and  (and  (and  (and  (and  (and  (and  (and  (and  (and  (and  (and  (and  (and  (and  (and  (and  (and  (and  (and  (and  (and  (and  (and  (and  (and  (and  (and  (= macro_v_0 (ff.add (ff.add (ff.add (ff.add (ff.add (ff.add (ff.add (ff.add (ff.add (ff.add (ff.add (ff.add (ff.add (ff.add (ff.add (ff.add (ff.add (ff.add (ff.add (ff.add (ff.add (ff.add (ff.add (ff.add (ff.add (ff.add (ff.add (ff.add (ff.add (ff.add (ff.add (ff.add (ff.add (ff.add (ff.add (ff.add (ff.add (ff.add (ff.add (ff.add (ff.add (ff.add (ff.add (ff.add (ff.add (ff.add (ff.add (ff.add (ff.add (ff.add (ff.add (ff.add (ff.add (ff.add (ff.add (ff.add (ff.add (ff.add (ff.add (ff.add (ff.add (ff.add (ff.add (ff.mul macro_v_9 1) (ff.mul macro_v_10 2)) (ff.mul macro_v_11 4)) (ff.mul macro_v_12 8)) (ff.mul macro_v_13 16)) (ff.mul macro_v_14 32)) (ff.mul macro_v_15 64)) (ff.mul macro_v_16 128)) (ff.mul macro_v_17 256)) (ff.mul macro_v_18 512)) (ff.mul macro_v_19 1024)) (ff.mul macro_v_20 2048)) (ff.mul macro_v_21 4096)) (ff.mul macro_v_22 8192)) (ff.mul macro_v_23 16384)) (ff.mul macro_v_24 32768)) (ff.mul macro_v_25 65536)) (ff.mul macro_v_26 131072)) (ff.mul macro_v_27 262144)) (ff.mul macro_v_28 524288)) (ff.mul macro_v_29 1048576)) (ff.mul macro_v_30 2097152)) (ff.mul macro_v_31 4194304)) (ff.mul macro_v_32 8388608)) (ff.mul macro_v_33 16777216)) (ff.mul macro_v_34 33554432)) (ff.mul macro_v_35 67108864)) (ff.mul macro_v_36 134217728)) (ff.mul macro_v_37 268435456)) (ff.mul macro_v_38 536870912)) (ff.mul macro_v_39 1073741824)) (ff.mul macro_v_40 2147483648)) (ff.mul macro_v_41 4294967296)) (ff.mul macro_v_42 8589934592)) (ff.mul macro_v_43 17179869184)) (ff.mul macro_v_44 34359738368)) (ff.mul macro_v_45 68719476736)) (ff.mul macro_v_46 137438953472)) (ff.mul macro_v_47 274877906944)) (ff.mul macro_v_48 549755813888)) (ff.mul macro_v_49 1099511627776)) (ff.mul macro_v_50 2199023255552)) (ff.mul macro_v_51 4398046511104)) (ff.mul macro_v_52 8796093022208)) (ff.mul macro_v_53 17592186044416)) (ff.mul macro_v_54 35184372088832)) (ff.mul macro_v_55 70368744177664)) (ff.mul macro_v_56 140737488355328)) (ff.mul macro_v_57 281474976710656)) (ff.mul macro_v_58 562949953421312)) (ff.mul macro_v_59 1125899906842624)) (ff.mul macro_v_60 2251799813685248)) (ff.mul macro_v_61 4503599627370496)) (ff.mul macro_v_62 9007199254740992)) (ff.mul macro_v_63 18014398509481984)) (ff.mul macro_v_64 36028797018963968)) (ff.mul macro_v_65 72057594037927936)) (ff.mul macro_v_66 144115188075855872)) (ff.mul macro_v_67 288230376151711744)) (ff.mul macro_v_68 576460752303423488)) (ff.mul macro_v_69 1152921504606846976)) (ff.mul macro_v_70 2305843009213693952)) (ff.mul macro_v_71 4611686018427387904)) (ff.mul macro_v_72 9223372036854775808))) (ff.range macro_v_9 0 1) ) (ff.range macro_v_10 0 1) ) (ff.range macro_v_11 0 1) ) (ff.range macro_v_12 0 1) ) (ff.range macro_v_13 0 1) ) (ff.range macro_v_14 0 1) ) (ff.range macro_v_15 0 1) ) (ff.range macro_v_16 0 1) ) (ff.range macro_v_17 0 1) ) (ff.range macro_v_18 0 1) ) (ff.range macro_v_19 0 1) ) (ff.range macro_v_20 0 1) ) (ff.range macro_v_21 0 1) ) (ff.range macro_v_22 0 1) ) (ff.range macro_v_23 0 1) ) (ff.range macro_v_24 0 1) ) (ff.range macro_v_25 0 1) ) (ff.range macro_v_26 0 1) ) (ff.range macro_v_27 0 1) ) (ff.range macro_v_28 0 1) ) (ff.range macro_v_29 0 1) ) (ff.range macro_v_30 0 1) ) (ff.range macro_v_31 0 1) ) (ff.range macro_v_32 0 1) ) (ff.range macro_v_33 0 1) ) (ff.range macro_v_34 0 1) ) (ff.range macro_v_35 0 1) ) (ff.range macro_v_36 0 1) ) (ff.range macro_v_37 0 1) ) (ff.range macro_v_38 0 1) ) (ff.range macro_v_39 0 1) ) (ff.range macro_v_40 0 1) ) (ff.range macro_v_41 0 1) ) (ff.range macro_v_42 0 1) ) (ff.range macro_v_43 0 1) ) (ff.range macro_v_44 0 1) ) (ff.range macro_v_45 0 1) ) (ff.range macro_v_46 0 1) ) (ff.range macro_v_47 0 1) ) (ff.range macro_v_48 0 1) ) (ff.range macro_v_49 0 1) ) (ff.range macro_v_50 0 1) ) (ff.range macro_v_51 0 1) ) (ff.range macro_v_52 0 1) ) (ff.range macro_v_53 0 1) ) (ff.range macro_v_54 0 1) ) (ff.range macro_v_55 0 1) ) (ff.range macro_v_56 0 1) ) (ff.range macro_v_57 0 1) ) (ff.range macro_v_58 0 1) ) (ff.range macro_v_59 0 1) ) (ff.range macro_v_60 0 1) ) (ff.range macro_v_61 0 1) ) (ff.range macro_v_62 0 1) ) (ff.range macro_v_63 0 1) ) (ff.range macro_v_64 0 1) ) (ff.range macro_v_65 0 1) ) (ff.range macro_v_66 0 1) ) (ff.range macro_v_67 0 1) ) (ff.range macro_v_68 0 1) ) (ff.range macro_v_69 0 1) ) (ff.range macro_v_70 0 1) ) (ff.range macro_v_71 0 1) ) (ff.range macro_v_72 0 1) ) (=>  (ff.range macro_v_0 0 9223372034707292160) (= macro_v_72 0) ) ) (= macro_v_8 (ff.add (ff.add (ff.add (ff.add (ff.add (ff.add (ff.add (ff.add (ff.add (ff.add (ff.add (ff.add (ff.add (ff.add (ff.add (ff.add (ff.add (ff.add (ff.add (ff.add (ff.add (ff.add (ff.add (ff.add (ff.add (ff.add (ff.add (ff.add (ff.add (ff.add (ff.add (ff.add (ff.add (ff.add (ff.add (ff.add (ff.add (ff.add (ff.add (ff.add (ff.add (ff.add (ff.add (ff.add (ff.add (ff.add (ff.add (ff.add (ff.add (ff.add (ff.add (ff.add (ff.add (ff.add (ff.add (ff.add (ff.add (ff.add (ff.add (ff.add (ff.add (ff.add (ff.add (ff.mul macro_v_9 1) (ff.mul macro_v_10 2)) (ff.mul macro_v_11 4)) (ff.mul macro_v_12 8)) (ff.mul macro_v_13 16)) (ff.mul macro_v_14 32)) (ff.mul macro_v_15 64)) (ff.mul macro_v_16 128)) (ff.mul macro_v_17 256)) (ff.mul macro_v_18 512)) (ff.mul macro_v_19 1024)) (ff.mul macro_v_20 2048)) (ff.mul macro_v_21 4096)) (ff.mul macro_v_22 8192)) (ff.mul macro_v_23 16384)) (ff.mul macro_v_24 32768)) (ff.mul macro_v_25 65536)) (ff.mul macro_v_26 131072)) (ff.mul macro_v_27 262144)) (ff.mul macro_v_28 524288)) (ff.mul macro_v_29 1048576)) (ff.mul macro_v_30 2097152)) (ff.mul macro_v_31 4194304)) (ff.mul macro_v_32 8388608)) (ff.mul macro_v_33 16777216)) (ff.mul macro_v_34 33554432)) (ff.mul macro_v_35 67108864)) (ff.mul macro_v_36 134217728)) (ff.mul macro_v_37 268435456)) (ff.mul macro_v_38 536870912)) (ff.mul macro_v_39 1073741824)) (ff.mul macro_v_40 2147483648)) (ff.mul macro_v_41 4294967296)) (ff.mul macro_v_42 8589934592)) (ff.mul macro_v_43 17179869184)) (ff.mul macro_v_44 34359738368)) (ff.mul macro_v_45 68719476736)) (ff.mul macro_v_46 137438953472)) (ff.mul macro_v_47 274877906944)) (ff.mul macro_v_48 549755813888)) (ff.mul macro_v_49 1099511627776)) (ff.mul macro_v_50 2199023255552)) (ff.mul macro_v_51 4398046511104)) (ff.mul macro_v_52 8796093022208)) (ff.mul macro_v_53 17592186044416)) (ff.mul macro_v_54 35184372088832)) (ff.mul macro_v_55 70368744177664)) (ff.mul macro_v_56 140737488355328)) (ff.mul macro_v_57 281474976710656)) (ff.mul macro_v_58 562949953421312)) (ff.mul macro_v_59 1125899906842624)) (ff.mul macro_v_60 2251799813685248)) (ff.mul macro_v_61 4503599627370496)) (ff.mul macro_v_62 9007199254740992)) (ff.mul macro_v_63 18014398509481984)) (ff.mul macro_v_64 36028797018963968)) (ff.mul macro_v_65 72057594037927936)) (ff.mul macro_v_66 144115188075855872)) (ff.mul macro_v_67 288230376151711744)) (ff.mul macro_v_68 576460752303423488)) (ff.mul macro_v_69 1152921504606846976)) (ff.mul macro_v_70 2305843009213693952)) (ff.mul macro_v_71 4611686018427387904)) (ff.mul macro_v_72 9223372036854775808))) ) :meta-data "%1_aft11 := bit.shr %arg0 %arg1") (and  (! true :meta-data "%felt_const_1_1_aft11 := 1") (and  (! (= macro_v_74 (ff.mul macro_v_9 1)) :meta-data "%2_aft11 := bit.and %1_aft11 %felt_const_1_1_aft11") (and  (! true :meta-data "%3_aft11 := %arg1") (and  (! true :meta-data "array.write %2_aft11 %nondet[%3_aft11]") (and  (! true :meta-data "%4_aft11 := %arg1") (and  (! true :meta-data "array.read %nondet[%4_aft11] %5_aft11") (and  (! (= macro_v_77 (ff.mul macro_v_74 1)) :meta-data "%6_aft11 := felt.mul %5_aft11 %arg3") (and  (! (= macro_v_78 (ff.add 0 macro_v_77)) :meta-data "%7_aft11 := felt.add %arg2 %6_aft11") (and  (! true :meta-data "%8_aft11 := felt.add %arg3 %arg3") (and  (! true :meta-data "%felt_const_1_2_aft11 := 1") (and  (! true :meta-data "%9_aft11 := felt.add %arg1 %felt_const_1_2_aft11") (and  (! true :meta-data "%arg1 := %9_aft11") (and  (! true :meta-data "%arg2 := %7_aft11") (and  (! true :meta-data "%arg3 := %8_aft11") (and  (! true :meta-data "%felt_const_2_1_bef11 := 2") (and  (! true :meta-data "%1_bef11 := bool.lt %felt_const_2_1_bef11 %arg1") (and  (! true :meta-data "%0#0 := %arg1") (and  (! true :meta-data "%0#1 := %arg2") (! true :meta-data "%0#2 := %arg3") ) ) ) ) ) ) ) ) ) ) ) ) ) ) ) ) ) ) ) (and  (! (= macro_v_87 (ff.add (ff.add (ff.add (ff.add (ff.add (ff.add (ff.add (ff.add (ff.add (ff.add (ff.add (ff.add (ff.add (ff.add (ff.add (ff.add (ff.add (ff.add (ff.add (ff.add (ff.add (ff.add (ff.add (ff.add (ff.add (ff.add (ff.add (ff.add (ff.add (ff.add (ff.add (ff.add (ff.add (ff.add (ff.add (ff.add (ff.add (ff.add (ff.add (ff.add (ff.add (ff.add (ff.add (ff.add (ff.add (ff.add (ff.add (ff.add (ff.add (ff.add (ff.add (ff.add (ff.add (ff.add (ff.add (ff.add (ff.add (ff.add (ff.add (ff.add (ff.add (ff.add (ff.mul macro_v_10 1) (ff.mul macro_v_11 2)) (ff.mul macro_v_12 4)) (ff.mul macro_v_13 8)) (ff.mul macro_v_14 16)) (ff.mul macro_v_15 32)) (ff.mul macro_v_16 64)) (ff.mul macro_v_17 128)) (ff.mul macro_v_18 256)) (ff.mul macro_v_19 512)) (ff.mul macro_v_20 1024)) (ff.mul macro_v_21 2048)) (ff.mul macro_v_22 4096)) (ff.mul macro_v_23 8192)) (ff.mul macro_v_24 16384)) (ff.mul macro_v_25 32768)) (ff.mul macro_v_26 65536)) (ff.mul macro_v_27 131072)) (ff.mul macro_v_28 262144)) (ff.mul macro_v_29 524288)) (ff.mul macro_v_30 1048576)) (ff.mul macro_v_31 2097152)) (ff.mul macro_v_32 4194304)) (ff.mul macro_v_33 8388608)) (ff.mul macro_v_34 16777216)) (ff.mul macro_v_35 33554432)) (ff.mul macro_v_36 67108864)) (ff.mul macro_v_37 134217728)) (ff.mul macro_v_38 268435456)) (ff.mul macro_v_39 536870912)) (ff.mul macro_v_40 1073741824)) (ff.mul macro_v_41 2147483648)) (ff.mul macro_v_42 4294967296)) (ff.mul macro_v_43 8589934592)) (ff.mul macro_v_44 17179869184)) (ff.mul macro_v_45 34359738368)) (ff.mul macro_v_46 68719476736)) (ff.mul macro_v_47 137438953472)) (ff.mul macro_v_48 274877906944)) (ff.mul macro_v_49 549755813888)) (ff.mul macro_v_50 1099511627776)) (ff.mul macro_v_51 2199023255552)) (ff.mul macro_v_52 4398046511104)) (ff.mul macro_v_53 8796093022208)) (ff.mul macro_v_54 17592186044416)) (ff.mul macro_v_55 35184372088832)) (ff.mul macro_v_56 70368744177664)) (ff.mul macro_v_57 140737488355328)) (ff.mul macro_v_58 281474976710656)) (ff.mul macro_v_59 562949953421312)) (ff.mul macro_v_60 1125899906842624)) (ff.mul macro_v_61 2251799813685248)) (ff.mul macro_v_62 4503599627370496)) (ff.mul macro_v_63 9007199254740992)) (ff.mul macro_v_64 18014398509481984)) (ff.mul macro_v_65 36028797018963968)) (ff.mul macro_v_66 72057594037927936)) (ff.mul macro_v_67 144115188075855872)) (ff.mul macro_v_68 288230376151711744)) (ff.mul macro_v_69 576460752303423488)) (ff.mul macro_v_70 1152921504606846976)) (ff.mul macro_v_71 2305843009213693952)) (ff.mul macro_v_72 4611686018427387904))) :meta-data "%1_aft11 := bit.shr %arg0 %arg1") (and  (! true :meta-data "%felt_const_1_1_aft11 := 1") (and  (! (= macro_v_89 (ff.mul macro_v_10 1)) :meta-data "%2_aft11 := bit.and %1_aft11 %felt_const_1_1_aft11") (and  (! true :meta-data "%3_aft11 := %arg1") (and  (! true :meta-data "array.write %2_aft11 %nondet[%3_aft11]") (and  (! true :meta-data "%4_aft11 := %arg1") (and  (! true :meta-data "array.read %nondet[%4_aft11] %5_aft11") (and  (! (= macro_v_92 (ff.mul macro_v_89 2)) :meta-data "%6_aft11 := felt.mul %5_aft11 %arg3") (and  (! (= macro_v_93 (ff.add macro_v_78 macro_v_92)) :meta-data "%7_aft11 := felt.add %arg2 %6_aft11") (and  (! true :meta-data "%8_aft11 := felt.add %arg3 %arg3") (and  (! true :meta-data "%felt_const_1_2_aft11 := 1") (and  (! true :meta-data "%9_aft11 := felt.add %arg1 %felt_const_1_2_aft11") (and  (! true :meta-data "%arg1 := %9_aft11") (and  (! true :meta-data "%arg2 := %7_aft11") (and  (! true :meta-data "%arg3 := %8_aft11") (and  (! true :meta-data "%felt_const_2_1_bef11 := 2") (and  (! true :meta-data "%1_bef11 := bool.lt %felt_const_2_1_bef11 %arg1") (and  (! true :meta-data "%0#0 := %arg1") (and  (! true :meta-data "%0#1 := %arg2") (! true :meta-data "%0#2 := %arg3") ) ) ) ) ) ) ) ) ) ) ) ) ) ) ) ) ) ) ) ) :meta-data "repeat_exp 2") (! true :meta-data "array.copy %nondet out") ) ) ) ) ) ) ) ) ) (= macro_v_102 macro_v_74) ) (= macro_v_103 macro_v_89) ) )

(define-fun @Num2Ternary_1 ((macro_v_0 FF0) (macro_v_258 FF0) (macro_v_259 FF0) (macro_v_260 FF0) (macro_v_261 FF0) (macro_v_20 FF0) (macro_v_21 FF0) (macro_v_23 FF0) (macro_v_24 FF0) (macro_v_27 FF0) (macro_v_28 FF0) (macro_v_42 FF0) (macro_v_43 FF0) (macro_v_44 FF0) (macro_v_45 FF0) (macro_v_46 FF0) (macro_v_47 FF0) (macro_v_48 FF0) (macro_v_49 FF0) (macro_v_50 FF0) (macro_v_51 FF0) (macro_v_52 FF0) (macro_v_53 FF0) (macro_v_54 FF0) (macro_v_55 FF0) (macro_v_56 FF0) (macro_v_57 FF0) (macro_v_58 FF0) (macro_v_59 FF0) (macro_v_60 FF0) (macro_v_61 FF0) (macro_v_62 FF0) (macro_v_63 FF0) (macro_v_64 FF0) (macro_v_65 FF0) (macro_v_66 FF0) (macro_v_67 FF0) (macro_v_68 FF0) (macro_v_69 FF0) (macro_v_70 FF0) (macro_v_71 FF0) (macro_v_72 FF0) (macro_v_73 FF0) (macro_v_74 FF0) (macro_v_75 FF0) (macro_v_76 FF0) (macro_v_77 FF0) (macro_v_78 FF0) (macro_v_79 FF0) (macro_v_80 FF0) (macro_v_81 FF0) (macro_v_82 FF0) (macro_v_83 FF0) (macro_v_84 FF0) (macro_v_85 FF0) (macro_v_86 FF0) (macro_v_87 FF0) (macro_v_88 FF0) (macro_v_89 FF0) (macro_v_90 FF0) (macro_v_91 FF0) (macro_v_92 FF0) (macro_v_93 FF0) (macro_v_94 FF0) (macro_v_95 FF0) (macro_v_96 FF0) (macro_v_97 FF0) (macro_v_98 FF0) (macro_v_99 FF0) (macro_v_100 FF0) (macro_v_101 FF0) (macro_v_102 FF0) (macro_v_103 FF0) (macro_v_104 FF0) (macro_v_105 FF0) (macro_v_106 FF0) (macro_v_107 FF0) (macro_v_108 FF0) (macro_v_109 FF0) (macro_v_110 FF0) (macro_v_111 FF0) (macro_v_112 FF0) (macro_v_113 FF0) (macro_v_114 FF0) (macro_v_115 FF0) (macro_v_135 FF0) (macro_v_136 FF0) (macro_v_138 FF0) (macro_v_139 FF0) (macro_v_142 FF0) (macro_v_143 FF0) (macro_v_157 FF0) (macro_v_158 FF0) (macro_v_159 FF0) (macro_v_160 FF0) (macro_v_161 FF0) (macro_v_162 FF0) (macro_v_163 FF0) (macro_v_164 FF0) (macro_v_165 FF0) (macro_v_166 FF0) (macro_v_167 FF0) (macro_v_168 FF0) (macro_v_169 FF0) (macro_v_170 FF0) (macro_v_171 FF0) (macro_v_172 FF0) (macro_v_173 FF0) (macro_v_174 FF0) (macro_v_175 FF0) (macro_v_176 FF0) (macro_v_177 FF0) (macro_v_178 FF0) (macro_v_179 FF0) (macro_v_180 FF0) (macro_v_181 FF0) (macro_v_182 FF0) (macro_v_183 FF0) (macro_v_184 FF0) (macro_v_185 FF0) (macro_v_186 FF0) (macro_v_187 FF0) (macro_v_188 FF0) (macro_v_189 FF0) (macro_v_190 FF0) (macro_v_191 FF0) (macro_v_192 FF0) (macro_v_193 FF0) (macro_v_194 FF0) (macro_v_195 FF0) (macro_v_196 FF0) (macro_v_197 FF0) (macro_v_198 FF0) (macro_v_199 FF0) (macro_v_200 FF0) (macro_v_201 FF0) (macro_v_202 FF0) (macro_v_203 FF0) (macro_v_204 FF0) (macro_v_205 FF0) (macro_v_206 FF0) (macro_v_207 FF0) (macro_v_208 FF0) (macro_v_209 FF0) (macro_v_210 FF0) (macro_v_211 FF0) (macro_v_212 FF0) (macro_v_213 FF0) (macro_v_214 FF0) (macro_v_215 FF0) (macro_v_216 FF0) (macro_v_217 FF0) (macro_v_218 FF0) (macro_v_219 FF0) (macro_v_220 FF0) (macro_v_221 FF0) (macro_v_222 FF0) (macro_v_223 FF0) (macro_v_224 FF0) (macro_v_225 FF0) (macro_v_226 FF0) (macro_v_227 FF0) (macro_v_228 FF0) (macro_v_229 FF0) (macro_v_230 FF0) ) Bool
true)

(define-fun main ((macro_v_0 FF0) (macro_v_165 FF0) (macro_v_166 FF0) (macro_v_167 FF0) (macro_v_168 FF0) (macro_v_1 FF0) (macro_v_2 FF0) (macro_v_3 FF0) (macro_v_4 FF0) (macro_v_5 FF0) (macro_v_6 FF0) (macro_v_7 FF0) (macro_v_8 FF0) (macro_v_9 FF0) (macro_v_10 FF0) (macro_v_11 FF0) (macro_v_12 FF0) (macro_v_13 FF0) (macro_v_14 FF0) (macro_v_15 FF0) (macro_v_16 FF0) (macro_v_17 FF0) (macro_v_18 FF0) (macro_v_19 FF0) (macro_v_20 FF0) (macro_v_21 FF0) (macro_v_22 FF0) (macro_v_23 FF0) (macro_v_24 FF0) (macro_v_25 FF0) (macro_v_26 FF0) (macro_v_27 FF0) (macro_v_28 FF0) (macro_v_29 FF0) (macro_v_30 FF0) (macro_v_31 FF0) (macro_v_32 FF0) (macro_v_33 FF0) (macro_v_34 FF0) (macro_v_35 FF0) (macro_v_36 FF0) (macro_v_37 FF0) (macro_v_38 FF0) (macro_v_39 FF0) (macro_v_40 FF0) (macro_v_41 FF0) (macro_v_42 FF0) (macro_v_43 FF0) (macro_v_44 FF0) (macro_v_45 FF0) (macro_v_46 FF0) (macro_v_47 FF0) (macro_v_48 FF0) (macro_v_49 FF0) (macro_v_50 FF0) (macro_v_51 FF0) (macro_v_52 FF0) (macro_v_53 FF0) (macro_v_54 FF0) (macro_v_55 FF0) (macro_v_56 FF0) (macro_v_57 FF0) (macro_v_58 FF0) (macro_v_59 FF0) (macro_v_60 FF0) (macro_v_61 FF0) (macro_v_62 FF0) (macro_v_63 FF0) (macro_v_64 FF0) (macro_v_65 FF0) (macro_v_66 FF0) (macro_v_67 FF0) (macro_v_68 FF0) (macro_v_69 FF0) (macro_v_70 FF0) (macro_v_71 FF0) (macro_v_72 FF0) (macro_v_73 FF0) (macro_v_74 FF0) (macro_v_75 FF0) (macro_v_76 FF0) (macro_v_77 FF0) (macro_v_78 FF0) (macro_v_79 FF0) (macro_v_80 FF0) (macro_v_81 FF0) (macro_v_82 FF0) (macro_v_83 FF0) (macro_v_84 FF0) (macro_v_85 FF0) (macro_v_86 FF0) (macro_v_87 FF0) (macro_v_88 FF0) (macro_v_89 FF0) (macro_v_90 FF0) (macro_v_91 FF0) (macro_v_92 FF0) (macro_v_93 FF0) (macro_v_94 FF0) (macro_v_95 FF0) (macro_v_96 FF0) (macro_v_97 FF0) (macro_v_98 FF0) (macro_v_99 FF0) (macro_v_100 FF0) (macro_v_101 FF0) (macro_v_102 FF0) (macro_v_103 FF0) (macro_v_104 FF0) (macro_v_105 FF0) (macro_v_106 FF0) (macro_v_107 FF0) (macro_v_108 FF0) (macro_v_109 FF0) (macro_v_110 FF0) (macro_v_111 FF0) (macro_v_112 FF0) (macro_v_113 FF0) (macro_v_114 FF0) (macro_v_115 FF0) (macro_v_116 FF0) (macro_v_117 FF0) (macro_v_118 FF0) (macro_v_119 FF0) (macro_v_120 FF0) (macro_v_121 FF0) (macro_v_122 FF0) (macro_v_123 FF0) (macro_v_124 FF0) (macro_v_125 FF0) (macro_v_126 FF0) (macro_v_127 FF0) (macro_v_128 FF0) (macro_v_129 FF0) (macro_v_130 FF0) (macro_v_131 FF0) (macro_v_132 FF0) (macro_v_133 FF0) (macro_v_134 FF0) (macro_v_135 FF0) (macro_v_136 FF0) (macro_v_137 FF0) (macro_v_138 FF0) (macro_v_139 FF0) (macro_v_140 FF0) (macro_v_141 FF0) (macro_v_142 FF0) (macro_v_143 FF0) (macro_v_144 FF0) (macro_v_145 FF0) (macro_v_146 FF0) (macro_v_147 FF0) (macro_v_148 FF0) (macro_v_149 FF0) (macro_v_150 FF0) (macro_v_151 FF0) (macro_v_152 FF0) (macro_v_153 FF0) (macro_v_154 FF0) (macro_v_155 FF0) (macro_v_156 FF0) (macro_v_157 FF0) (macro_v_158 FF0) (macro_v_159 FF0) (macro_v_160 FF0) (macro_v_161 FF0) (macro_v_162 FF0) (macro_v_163 FF0) (macro_v_164 FF0) ) Bool
true)

(assert  (and  (and  (and  (! true :meta-data "array.new 2 %nondet") (and  (! true :meta-data "%felt_const_2 := 2") (and  (! true :meta-data "%felt_const_0 := 0") (and  (! true :meta-data "%felt_const_1 := 1") (and  (! true :meta-data "%felt_const_0_0 := 0") (and  (! true :meta-data "%arg1 := %felt_const_0_0") (and  (! true :meta-data "%arg2 := %felt_const_0") (and  (! true :meta-data "%arg3 := %felt_const_1") (and  (! (and  (and  (! (and  (and  (and  (and  (and  (and  (and  (and  (and  (and  (and  (and  (and  (and  (and  (and  (and  (and  (and  (and  (and  (and  (and  (and  (and  (and  (and  (and  (and  (and  (and  (and  (and  (and  (and  (and  (and  (and  (and  (and  (and  (and  (and  (and  (and  (and  (and  (and  (and  (and  (and  (and  (and  (and  (and  (and  (and  (and  (and  (and  (and  (and  (and  (and  (and  (and  (= v_0 (ff.add (ff.add (ff.add (ff.add (ff.add (ff.add (ff.add (ff.add (ff.add (ff.add (ff.add (ff.add (ff.add (ff.add (ff.add (ff.add (ff.add (ff.add (ff.add (ff.add (ff.add (ff.add (ff.add (ff.add (ff.add (ff.add (ff.add (ff.add (ff.add (ff.add (ff.add (ff.add (ff.add (ff.add (ff.add (ff.add (ff.add (ff.add (ff.add (ff.add (ff.add (ff.add (ff.add (ff.add (ff.add (ff.add (ff.add (ff.add (ff.add (ff.add (ff.add (ff.add (ff.add (ff.add (ff.add (ff.add (ff.add (ff.add (ff.add (ff.add (ff.add (ff.add (ff.add (ff.mul v_9 1) (ff.mul v_10 2)) (ff.mul v_11 4)) (ff.mul v_12 8)) (ff.mul v_13 16)) (ff.mul v_14 32)) (ff.mul v_15 64)) (ff.mul v_16 128)) (ff.mul v_17 256)) (ff.mul v_18 512)) (ff.mul v_19 1024)) (ff.mul v_20 2048)) (ff.mul v_21 4096)) (ff.mul v_22 8192)) (ff.mul v_23 16384)) (ff.mul v_24 32768)) (ff.mul v_25 65536)) (ff.mul v_26 131072)) (ff.mul v_27 262144)) (ff.mul v_28 524288)) (ff.mul v_29 1048576)) (ff.mul v_30 2097152)) (ff.mul v_31 4194304)) (ff.mul v_32 8388608)) (ff.mul v_33 16777216)) (ff.mul v_34 33554432)) (ff.mul v_35 67108864)) (ff.mul v_36 134217728)) (ff.mul v_37 268435456)) (ff.mul v_38 536870912)) (ff.mul v_39 1073741824)) (ff.mul v_40 2147483648)) (ff.mul v_41 4294967296)) (ff.mul v_42 8589934592)) (ff.mul v_43 17179869184)) (ff.mul v_44 34359738368)) (ff.mul v_45 68719476736)) (ff.mul v_46 137438953472)) (ff.mul v_47 274877906944)) (ff.mul v_48 549755813888)) (ff.mul v_49 1099511627776)) (ff.mul v_50 2199023255552)) (ff.mul v_51 4398046511104)) (ff.mul v_52 8796093022208)) (ff.mul v_53 17592186044416)) (ff.mul v_54 35184372088832)) (ff.mul v_55 70368744177664)) (ff.mul v_56 140737488355328)) (ff.mul v_57 281474976710656)) (ff.mul v_58 562949953421312)) (ff.mul v_59 1125899906842624)) (ff.mul v_60 2251799813685248)) (ff.mul v_61 4503599627370496)) (ff.mul v_62 9007199254740992)) (ff.mul v_63 18014398509481984)) (ff.mul v_64 36028797018963968)) (ff.mul v_65 72057594037927936)) (ff.mul v_66 144115188075855872)) (ff.mul v_67 288230376151711744)) (ff.mul v_68 576460752303423488)) (ff.mul v_69 1152921504606846976)) (ff.mul v_70 2305843009213693952)) (ff.mul v_71 4611686018427387904)) (ff.mul v_72 9223372036854775808))) (ff.range v_9 0 1) ) (ff.range v_10 0 1) ) (ff.range v_11 0 1) ) (ff.range v_12 0 1) ) (ff.range v_13 0 1) ) (ff.range v_14 0 1) ) (ff.range v_15 0 1) ) (ff.range v_16 0 1) ) (ff.range v_17 0 1) ) (ff.range v_18 0 1) ) (ff.range v_19 0 1) ) (ff.range v_20 0 1) ) (ff.range v_21 0 1) ) (ff.range v_22 0 1) ) (ff.range v_23 0 1) ) (ff.range v_24 0 1) ) (ff.range v_25 0 1) ) (ff.range v_26 0 1) ) (ff.range v_27 0 1) ) (ff.range v_28 0 1) ) (ff.range v_29 0 1) ) (ff.range v_30 0 1) ) (ff.range v_31 0 1) ) (ff.range v_32 0 1) ) (ff.range v_33 0 1) ) (ff.range v_34 0 1) ) (ff.range v_35 0 1) ) (ff.range v_36 0 1) ) (ff.range v_37 0 1) ) (ff.range v_38 0 1) ) (ff.range v_39 0 1) ) (ff.range v_40 0 1) ) (ff.range v_41 0 1) ) (ff.range v_42 0 1) ) (ff.range v_43 0 1) ) (ff.range v_44 0 1) ) (ff.range v_45 0 1) ) (ff.range v_46 0 1) ) (ff.range v_47 0 1) ) (ff.range v_48 0 1) ) (ff.range v_49 0 1) ) (ff.range v_50 0 1) ) (ff.range v_51 0 1) ) (ff.range v_52 0 1) ) (ff.range v_53 0 1) ) (ff.range v_54 0 1) ) (ff.range v_55 0 1) ) (ff.range v_56 0 1) ) (ff.range v_57 0 1) ) (ff.range v_58 0 1) ) (ff.range v_59 0 1) ) (ff.range v_60 0 1) ) (ff.range v_61 0 1) ) (ff.range v_62 0 1) ) (ff.range v_63 0 1) ) (ff.range v_64 0 1) ) (ff.range v_65 0 1) ) (ff.range v_66 0 1) ) (ff.range v_67 0 1) ) (ff.range v_68 0 1) ) (ff.range v_69 0 1) ) (ff.range v_70 0 1) ) (ff.range v_71 0 1) ) (ff.range v_72 0 1) ) (=>  (ff.range v_0 0 9223372034707292160) (= v_72 0) ) ) (= v_8 (ff.add (ff.add (ff.add (ff.add (ff.add (ff.add (ff.add (ff.add (ff.add (ff.add (ff.add (ff.add (ff.add (ff.add (ff.add (ff.add (ff.add (ff.add (ff.add (ff.add (ff.add (ff.add (ff.add (ff.add (ff.add (ff.add (ff.add (ff.add (ff.add (ff.add (ff.add (ff.add (ff.add (ff.add (ff.add (ff.add (ff.add (ff.add (ff.add (ff.add (ff.add (ff.add (ff.add (ff.add (ff.add (ff.add (ff.add (ff.add (ff.add (ff.add (ff.add (ff.add (ff.add (ff.add (ff.add (ff.add (ff.add (ff.add (ff.add (ff.add (ff.add (ff.add (ff.add (ff.mul v_9 1) (ff.mul v_10 2)) (ff.mul v_11 4)) (ff.mul v_12 8)) (ff.mul v_13 16)) (ff.mul v_14 32)) (ff.mul v_15 64)) (ff.mul v_16 128)) (ff.mul v_17 256)) (ff.mul v_18 512)) (ff.mul v_19 1024)) (ff.mul v_20 2048)) (ff.mul v_21 4096)) (ff.mul v_22 8192)) (ff.mul v_23 16384)) (ff.mul v_24 32768)) (ff.mul v_25 65536)) (ff.mul v_26 131072)) (ff.mul v_27 262144)) (ff.mul v_28 524288)) (ff.mul v_29 1048576)) (ff.mul v_30 2097152)) (ff.mul v_31 4194304)) (ff.mul v_32 8388608)) (ff.mul v_33 16777216)) (ff.mul v_34 33554432)) (ff.mul v_35 67108864)) (ff.mul v_36 134217728)) (ff.mul v_37 268435456)) (ff.mul v_38 536870912)) (ff.mul v_39 1073741824)) (ff.mul v_40 2147483648)) (ff.mul v_41 4294967296)) (ff.mul v_42 8589934592)) (ff.mul v_43 17179869184)) (ff.mul v_44 34359738368)) (ff.mul v_45 68719476736)) (ff.mul v_46 137438953472)) (ff.mul v_47 274877906944)) (ff.mul v_48 549755813888)) (ff.mul v_49 1099511627776)) (ff.mul v_50 2199023255552)) (ff.mul v_51 4398046511104)) (ff.mul v_52 8796093022208)) (ff.mul v_53 17592186044416)) (ff.mul v_54 35184372088832)) (ff.mul v_55 70368744177664)) (ff.mul v_56 140737488355328)) (ff.mul v_57 281474976710656)) (ff.mul v_58 562949953421312)) (ff.mul v_59 1125899906842624)) (ff.mul v_60 2251799813685248)) (ff.mul v_61 4503599627370496)) (ff.mul v_62 9007199254740992)) (ff.mul v_63 18014398509481984)) (ff.mul v_64 36028797018963968)) (ff.mul v_65 72057594037927936)) (ff.mul v_66 144115188075855872)) (ff.mul v_67 288230376151711744)) (ff.mul v_68 576460752303423488)) (ff.mul v_69 1152921504606846976)) (ff.mul v_70 2305843009213693952)) (ff.mul v_71 4611686018427387904)) (ff.mul v_72 9223372036854775808))) ) :meta-data "%1_aft11 := bit.shr %arg0 %arg1") (and  (! true :meta-data "%felt_const_1_1_aft11 := 1") (and  (! (= v_74 (ff.mul v_9 1)) :meta-data "%2_aft11 := bit.and %1_aft11 %felt_const_1_1_aft11") (and  (! true :meta-data "%3_aft11 := %arg1") (and  (! true :meta-data "array.write %2_aft11 %nondet[%3_aft11]") (and  (! true :meta-data "%4_aft11 := %arg1") (and  (! true :meta-data "array.read %nondet[%4_aft11] %5_aft11") (and  (! (= v_77 (ff.mul v_74 1)) :meta-data "%6_aft11 := felt.mul %5_aft11 %arg3") (and  (! (= v_78 (ff.add 0 v_77)) :meta-data "%7_aft11 := felt.add %arg2 %6_aft11") (and  (! true :meta-data "%8_aft11 := felt.add %arg3 %arg3") (and  (! true :meta-data "%felt_const_1_2_aft11 := 1") (and  (! true :meta-data "%9_aft11 := felt.add %arg1 %felt_const_1_2_aft11") (and  (! true :meta-data "%arg1 := %9_aft11") (and  (! true :meta-data "%arg2 := %7_aft11") (and  (! true :meta-data "%arg3 := %8_aft11") (and  (! true :meta-data "%felt_const_2_1_bef11 := 2") (and  (! true :meta-data "%1_bef11 := bool.lt %felt_const_2_1_bef11 %arg1") (and  (! true :meta-data "%0#0 := %arg1") (and  (! true :meta-data "%0#1 := %arg2") (! true :meta-data "%0#2 := %arg3") ) ) ) ) ) ) ) ) ) ) ) ) ) ) ) ) ) ) ) (and  (! (= v_87 (ff.add (ff.add (ff.add (ff.add (ff.add (ff.add (ff.add (ff.add (ff.add (ff.add (ff.add (ff.add (ff.add (ff.add (ff.add (ff.add (ff.add (ff.add (ff.add (ff.add (ff.add (ff.add (ff.add (ff.add (ff.add (ff.add (ff.add (ff.add (ff.add (ff.add (ff.add (ff.add (ff.add (ff.add (ff.add (ff.add (ff.add (ff.add (ff.add (ff.add (ff.add (ff.add (ff.add (ff.add (ff.add (ff.add (ff.add (ff.add (ff.add (ff.add (ff.add (ff.add (ff.add (ff.add (ff.add (ff.add (ff.add (ff.add (ff.add (ff.add (ff.add (ff.add (ff.mul v_10 1) (ff.mul v_11 2)) (ff.mul v_12 4)) (ff.mul v_13 8)) (ff.mul v_14 16)) (ff.mul v_15 32)) (ff.mul v_16 64)) (ff.mul v_17 128)) (ff.mul v_18 256)) (ff.mul v_19 512)) (ff.mul v_20 1024)) (ff.mul v_21 2048)) (ff.mul v_22 4096)) (ff.mul v_23 8192)) (ff.mul v_24 16384)) (ff.mul v_25 32768)) (ff.mul v_26 65536)) (ff.mul v_27 131072)) (ff.mul v_28 262144)) (ff.mul v_29 524288)) (ff.mul v_30 1048576)) (ff.mul v_31 2097152)) (ff.mul v_32 4194304)) (ff.mul v_33 8388608)) (ff.mul v_34 16777216)) (ff.mul v_35 33554432)) (ff.mul v_36 67108864)) (ff.mul v_37 134217728)) (ff.mul v_38 268435456)) (ff.mul v_39 536870912)) (ff.mul v_40 1073741824)) (ff.mul v_41 2147483648)) (ff.mul v_42 4294967296)) (ff.mul v_43 8589934592)) (ff.mul v_44 17179869184)) (ff.mul v_45 34359738368)) (ff.mul v_46 68719476736)) (ff.mul v_47 137438953472)) (ff.mul v_48 274877906944)) (ff.mul v_49 549755813888)) (ff.mul v_50 1099511627776)) (ff.mul v_51 2199023255552)) (ff.mul v_52 4398046511104)) (ff.mul v_53 8796093022208)) (ff.mul v_54 17592186044416)) (ff.mul v_55 35184372088832)) (ff.mul v_56 70368744177664)) (ff.mul v_57 140737488355328)) (ff.mul v_58 281474976710656)) (ff.mul v_59 562949953421312)) (ff.mul v_60 1125899906842624)) (ff.mul v_61 2251799813685248)) (ff.mul v_62 4503599627370496)) (ff.mul v_63 9007199254740992)) (ff.mul v_64 18014398509481984)) (ff.mul v_65 36028797018963968)) (ff.mul v_66 72057594037927936)) (ff.mul v_67 144115188075855872)) (ff.mul v_68 288230376151711744)) (ff.mul v_69 576460752303423488)) (ff.mul v_70 1152921504606846976)) (ff.mul v_71 2305843009213693952)) (ff.mul v_72 4611686018427387904))) :meta-data "%1_aft11 := bit.shr %arg0 %arg1") (and  (! true :meta-data "%felt_const_1_1_aft11 := 1") (and  (! (= v_89 (ff.mul v_10 1)) :meta-data "%2_aft11 := bit.and %1_aft11 %felt_const_1_1_aft11") (and  (! true :meta-data "%3_aft11 := %arg1") (and  (! true :meta-data "array.write %2_aft11 %nondet[%3_aft11]") (and  (! true :meta-data "%4_aft11 := %arg1") (and  (! true :meta-data "array.read %nondet[%4_aft11] %5_aft11") (and  (! (= v_92 (ff.mul v_89 2)) :meta-data "%6_aft11 := felt.mul %5_aft11 %arg3") (and  (! (= v_93 (ff.add v_78 v_92)) :meta-data "%7_aft11 := felt.add %arg2 %6_aft11") (and  (! true :meta-data "%8_aft11 := felt.add %arg3 %arg3") (and  (! true :meta-data "%felt_const_1_2_aft11 := 1") (and  (! true :meta-data "%9_aft11 := felt.add %arg1 %felt_const_1_2_aft11") (and  (! true :meta-data "%arg1 := %9_aft11") (and  (! true :meta-data "%arg2 := %7_aft11") (and  (! true :meta-data "%arg3 := %8_aft11") (and  (! true :meta-data "%felt_const_2_1_bef11 := 2") (and  (! true :meta-data "%1_bef11 := bool.lt %felt_const_2_1_bef11 %arg1") (and  (! true :meta-data "%0#0 := %arg1") (and  (! true :meta-data "%0#1 := %arg2") (! true :meta-data "%0#2 := %arg3") ) ) ) ) ) ) ) ) ) ) ) ) ) ) ) ) ) ) ) ) :meta-data "repeat_exp 2") (! true :meta-data "array.copy %nondet out") ) ) ) ) ) ) ) ) ) (= v_102 v_74) ) (= v_103 v_89) ) )
(assert (= s_13 v_0))
(assert (not (and  (= s_11 v_102)  (= s_12 v_103) )))
(check-sat)
